sat
(:added-eqs                       6518
 :arith-eq-adapter                342
 :arith-bound-propagations-lp     186
 :arith-branch                    7
 :arith-conflicts                 1208
 :arith-cube-calls                1
 :arith-diseq                     445
 :arith-fixed-eqs                 496
 :arith-gcd-calls                 131
 :arith-gomory-cuts               2
 :arith-grobner-calls             121
 :arith-grobner-conflicts         108
 :arith-hnf-calls                 1
 :arith-horner-calls              26
 :arith-horner-conflicts          1
 :arith-horner-cross-nested-forms 15652
 :arith-lower                     1654
 :arith-make-feasible             2480
 :arith-max-columns               1836
 :arith-max-rows                  839
 :arith-nla-add-bounds            3
 :arith-nla-lemmas                568
 :arith-nla-propagate-bounds      529
 :arith-nla-propagate-eq          7465
 :arith-nra-calls                 28
 :arith-offset-eqs                1010
 :arith-patches                   131
 :arith-patches-success           120
 :arith-upper                     3125
 :binary-propagations             1674
 :cnf-encoding-aux-vars           28
 :conflicts                       166
 :decisions                       3108
 :del-clause                      636
 :elim-unconstrained              23
 :final-checks                    288
 :max-memory                      114.50
 :memory                          58.84
 :minimized-lits                  149
 :mk-bool-var                     3647
 :mk-clause                       1291
 :mk-clause-binary                8136
 :nlsat-conflicts                 2423
 :nlsat-decisions                 475
 :nlsat-propagations              210333
 :nlsat-restarts                  5
 :nlsat-stages                    152281
 :num-allocs                      3540789883
 :num-checks                      1
 :propagations                    3442
 :restarts                        1
 :rlimit-count                    3525880
 :sat-mk-clause-2ary              132847
 :sat-mk-clause-nary              197268
 :sat-mk-var                      94888
 :sls-arith-moves                 2380
 :sls-ddfw-flips                  4633.00
 :sls-ddfw-shifts                 4.00
 :sls-num-guided-search           10
 :solve-eqs-elim-vars             147
 :solve-eqs-steps                 2446
 :time                            2.39
 :total-time                      2.39)
